# Cost: 679

# Tail Head Net
 35  34 1
 35  36 1
 36  37 1
 85  35 1
 37  38 1
 38  39 1
 39  40 1
 40  41 1
 41  42 1
 42  43 1
135  85 1
185 135 1
235 185 1
285 235 1
335 285 1
385 335 1
435 385 1
485 435 1
535 485 1
585 535 1
635 585 1
685 635 1
735 685 1
785 735 1
835 785 1
885 835 1
935 885 1
985 935 1
1035 985 1
1085 1035 1
1135 1085 1
1185 1135 1
1235 1185 1
1285 1235 1
1335 1285 1
1385 1335 1
1435 1385 1
1485 1435 1
1535 1485 1
1585 1535 1
1635 1585 1
1685 1635 1
1735 1685 1
1785 1735 1
1835 1785 1
1885 1835 1
1935 1885 1
1985 1935 1
2035 1985 1
2085 2035 1
2135 2085 1
2185 2135 1
2235 2185 1
2285 2235 1
2335 2285 1
2385 2335 1
2435 2385 1
2456 2457 1
2457 2458 1
2458 2459 1
2459 2460 1
2460 2461 1
2461 2462 1
2462 2463 1
2463 2464 1
2464 2465 1
2465 2466 1
2466 2467 1
2467 2468 1
2468 2469 1
2469 2470 1
2470 2471 1
2471 2472 1
2472 2473 1
2473 2474 1
2474 2475 1
2475 2476 1
2476 2477 1
2477 2478 1
2478 2479 1
2479 2480 1
2480 2481 1
2481 2482 1
2482 2483 1
2483 2484 1
2484 2485 1
2485 2435 1
2485 2486 1
2486 2487 1
2487 2488 1
2488 2489 1
 96  46 2
 97  96 2
147  97 2
197 147 2
247 197 2
297 247 2
347 297 2
397 347 2
447 397 2
497 447 2
497 498 2
498 499 2
499 500 2
547 497 2
597 547 2
647 597 2
697 647 2
747 697 2
797 747 2
847 797 2
897 847 2
947 897 2
997 947 2
1047 997 2
1097 1047 2
1147 1097 2
1197 1147 2
1247 1197 2
1297 1247 2
1347 1297 2
1397 1347 2
1447 1397 2
1497 1447 2
1547 1497 2
1597 1547 2
1647 1597 2
1697 1647 2
1747 1697 2
1797 1747 2
1847 1797 2
1897 1847 2
1947 1897 2
1997 1947 2
2047 1997 2
2097 2047 2
2147 2097 2
2197 2147 2
2247 2197 2
2297 2247 2
2347 2297 2
2397 2347 2
2447 2397 2
2494 2493 2
2495 2494 2
2496 2495 2
2497 2447 2
2497 2496 2
2950 450 3
3000 2950 3
3050 3000 3
3100 3050 3
3150 3100 3
3200 3150 3
3250 3200 3
3300 3250 3
3350 3300 3
3400 3350 3
3450 3400 3
3500 3450 3
3550 3500 3
3600 3550 3
3650 3600 3
3700 3650 3
3750 3700 3
3800 3750 3
3850 3800 3
3900 3850 3
3950 3900 3
4000 3950 3
4050 4000 3
4100 1600 3
4100 4050 3
4113 4114 3
4114 4115 3
4115 4116 3
4116 4117 3
4117 4118 3
4118 4119 3
4119 4120 3
4120 4121 3
4121 4122 3
4122 4123 3
4123 4124 3
4124 4125 3
4125 4126 3
4126 4127 3
4127 4128 3
4128 4129 3
4129 4130 3
4130 4131 3
4131 4132 3
4132 4133 3
4133 4134 3
4134 4135 3
4135 4136 3
4136 4137 3
4137 4138 3
4138 4139 3
4139 4140 3
4140 4141 3
4141 4142 3
4142 4143 3
4143 4144 3
4144 4145 3
4145 4146 3
4146 4147 3
4147 4148 3
4148 4149 3
4149 4150 3
4150 4100 3
4162 4163 3
4163 4113 3
4212 4162 3
1811 1812 3
1812 4312 3
4262 4212 3
1859 1860 3
1860 1861 3
1861 1811 3
4312 4262 3
1901 1902 3
1902 1903 3
1903 1904 3
1904 1905 3
1905 1906 3
1906 1907 3
1907 1908 3
1908 1909 3
1909 1859 3
 99 100 4
149  99 4
199 149 4
249 199 4
299 249 4
349 299 4
399 349 4
449 399 4
2949 449 4
501 551 4
501 3001 4
2999 2949 4
3001 3002 4
3002 3003 4
3003 3004 4
3004 3005 4
3005 3006 4
3006 3007 4
3007 3008 4
3008 3009 4
3009 3010 4
3010 3011 4
3011 3012 4
3012 3013 4
3013 3014 4
3014 3015 4
3015 3016 4
3016 3017 4
3017 3018 4
3018 3019 4
3019 3020 4
3020 3021 4
3021 3022 4
3022 3023 4
3023 3024 4
3024 3025 4
3025 3026 4
3026 3027 4
3027 3028 4
3028 3029 4
3029 3030 4
3030 3031 4
3031 3032 4
3032 3033 4
3033 3034 4
3034 3035 4
3035 3036 4
3036 3037 4
3037 3038 4
3038 3039 4
3039 3040 4
3040 3041 4
3041 3042 4
3042 3043 4
3043 3044 4
3044 3045 4
3045 3046 4
3046 3047 4
3047 3048 4
3048 3049 4
3049 2999 4
951 1001 5
1001 1051 5
1051 1101 5
1101 1151 5
1151 1152 5
1151 3651 5
1152 1153 5
1153 1154 5
1154 1155 5
1155 1156 5
1156 1157 5
1157 1158 5
1158 1159 5
1159 1160 5
1160 1161 5
1161 1162 5
1162 1163 5
1163 1164 5
1164 1165 5
1165 1166 5
1166 1167 5
1167 1168 5
1168 1169 5
1169 1170 5
1170 1171 5
1171 1172 5
1172 1173 5
1173 1174 5
1174 1175 5
1175 1176 5
1176 1177 5
1177 1178 5
1178 1179 5
1179 1180 5
1180 3680 5
1198 1199 5
1199 1200 5
3651 3701 5
3680 3681 5
3681 3682 5
3682 3683 5
3683 3684 5
3684 3685 5
3685 3686 5
3686 3687 5
3687 3688 5
3688 3689 5
3689 3690 5
3690 3691 5
3691 3692 5
3692 3693 5
3693 3694 5
3694 3695 5
3695 3696 5
3696 3697 5
3697 3698 5
3698 1198 5
3701 3751 5
3751 3801 5
3801 3851 5
3851 3901 5
3901 3951 5
3951 4001 5
4001 4051 5
4051 4101 5
4101 4151 5
4151 4201 5
4201 4251 5
4251 4301 5
4301 4351 5
4351 4401 5
1951 2001 5
4401 4451 5
2001 2051 5
4451 1951 5
2051 2101 5
2101 2151 5
2151 2201 5
2201 2251 5
 95  45 6
2595  95 6
2645 2595 6
2695 2645 6
2745 2695 6
2795 2745 6
2833 2834 6
2834 2835 6
2835 2836 6
2836 2837 6
2837 2838 6
2838 2839 6
2839 2840 6
2840 2841 6
2841 2842 6
2842 2843 6
2843 2844 6
2844 2845 6
2845 2795 6
2845 2846 6
2846 2847 6
2847 2848 6
2848 2849 6
2849 2850 6
2850 350 6
2881 2882 6
2882 2883 6
2883 2833 6
481 2981 6
2931 2881 6
531 481 6
2981 2931 6
581 531 6
631 581 6
681 631 6
731 681 6
781 731 6
831 781 6
881 831 6
931 881 6
981 931 6
1031 981 6
1081 1031 6
1131 1081 6
1181 1131 6
1231 1181 6
1281 1231 6
1323 1324 6
1324 1325 6
1325 1326 6
1326 1327 6
1327 1328 6
1328 1329 6
1329 1330 6
1330 1331 6
1331 1281 6
1372 1373 6
1373 1323 6
1421 1422 6
1422 1372 6
1470 1471 6
1471 1421 6
1519 1520 6
1520 1470 6
1568 1569 6
1569 1519 6
1613 1614 6
1614 1615 6
1615 1616 6
1616 1617 6
1617 1618 6
1618 1568 6
1655 1656 6
1656 1657 6
1657 1658 6
1658 1659 6
1659 1660 6
1660 1661 6
1661 1662 6
1662 1663 6
1663 1613 6
1701 1702 6
1702 1703 6
1703 1704 6
1704 1705 6
1705 1655 6
1751 1701 6
1801 1751 6
 14  15 7
 15  16 7
 64  14 7
 16  17 7
 17  18 7
 18  19 7
114  64 7
164 114 7
212 213 7
213 214 7
214 164 7
261 262 7
262 212 7
310 311 7
311 261 7
360 310 7
410 360 7
454 455 7
455 456 7
456 457 7
457 458 7
458 459 7
459 460 7
460 410 7
504 454 7
554 504 7
604 554 7
652 653 7
653 654 7
654 604 7
702 652 7
751 752 7
752 702 7
801 751 7
851 801 7
 57   7 8
2557  57 8
2607 2557 8
2657 2607 8
2707 2657 8
2757 2707 8
2807 2757 8
2857 2807 8
2907 2857 8
2957 2907 8
1301 1302 8
1302 3802 8
3802 3803 8
3803 3804 8
3804 3805 8
3805 3806 8
3806 3807 8
3807 3857 8
3807 6307 8
3857 3907 8
3907 3957 8
3957 4007 8
4007 4057 8
4057 4107 8
4107 4157 8
4157 4207 8
4207 4257 8
4257 4307 8
4307 4357 8
4357 4407 8
4407 4457 8
4457 4507 8
4507 4557 8
4557 4607 8
4607 4657 8
4657 4707 8
4707 4757 8
4757 4758 8
4758 4759 8
4759 4760 8
4760 4761 8
4761 4762 8
4762 4763 8
4763 4764 8
4764 4765 8
4765 4766 8
4766 4767 8
4767 4768 8
4768 4769 8
4769 4770 8
4770 4771 8
4771 4772 8
4772 4773 8
4773 4774 8
4774 4775 8
4775 4776 8
4776 4777 8
4777 4778 8
4778 4779 8
4779 4780 8
4780 4781 8
4781 4782 8
4782 4783 8
4783 4784 8
4784 4785 8
4785 4786 8
4786 4787 8
4787 4788 8
4788 4789 8
4789 4790 8
4790 4791 8
4791 4792 8
4792 4793 8
4793 4794 8
4794 4795 8
4795 4796 8
4796 4846 8
4846 4847 8
4847 4897 8
2398 2399 8
2399 2400 8
4897 4898 8
4898 2398 8
5457 2957 8
5507 5457 8
5557 5507 8
5607 5557 8
5657 5607 8
5707 5657 8
5757 5707 8
5807 5757 8
5857 5807 8
5907 5857 8
5957 5907 8
6007 5957 8
6057 6007 8
6107 6057 8
6157 6107 8
6207 6157 8
6257 6207 8
6307 6257 8
 27  26 9
 28  27 9
 29  28 9
 30  29 9
 31  30 9
 32  31 9
 82  32 9
 83  82 9
133  83 9
183 133 9
184 183 9
234 184 9
284 234 9
334 284 9
384 334 9
434 384 9
484 434 9
534 484 9
584 534 9
3084 584 9
3085 3084 9
3086 3085 9
3087 3086 9
3088 3087 9
3089 3088 9
3090 3089 9
3091 3090 9
3092 3091 9
3093 3092 9
3094 3093 9
3095 3094 9
3096 3095 9
3146 3096 9
3147 3146 9
3148 3147 9
3149 3148 9
749 3249 9
3199 3149 9
750 749 9
3249 3199 9
  3   2 10
2503   3 10
2504 2503 10
2505 2504 10
2506 2505 10
2507 2506 10
2508 2507 10
2509 2508 10
2510 2509 10
2511 2510 10
2512 2511 10
2513 2512 10
2514 2513 10
2515 2514 10
2516 2515 10
2517 2516 10
2518 2517 10
2519 2518 10
 21 2521 10
2520 2519 10
2521 2520 10
2521 2522 10
2522 2523 10
2523 2524 10
2524 2525 10
2525 2526 10
2526 2527 10
2527 2528 10
2528 2529 10
2529 2530 10
2530 2531 10
2531 2532 10
2532 2533 10
2533 2534 10
2534 2535 10
2535 2536 10
2536 2537 10
2537 2538 10
2538 2539 10
2539 2540 10
2540 2541 10
2541 2542 10
2542 2543 10
2543 2544 10
2544  44 10
